c colouring generated by benchmark framework
p edge 250 3218
v 1 6
v 2 5
v 3 9
v 4 3
v 5 6
v 6 5
v 7 6
v 8 3
v 9 3
v 10 11
v 11 5
v 12 10
v 13 8
v 14 4
v 15 8
v 16 0
v 17 7
v 18 7
v 19 1
v 20 10
v 21 9
v 22 3
v 23 8
v 24 2
v 25 7
v 26 7
v 27 4
v 28 2
v 29 11
v 30 3
v 31 8
v 32 6
v 33 0
v 34 1
v 35 4
v 36 7
v 37 9
v 38 3
v 39 1
v 40 10
v 41 10
v 42 3
v 43 8
v 44 0
v 45 0
v 46 6
v 47 7
v 48 3
v 49 9
v 50 5
v 51 10
v 52 11
v 53 9
v 54 4
v 55 2
v 56 10
v 57 11
v 58 7
v 59 5
v 60 9
v 61 1
v 62 11
v 63 4
v 64 11
v 65 2
v 66 1
v 67 10
v 68 7
v 69 10
v 70 5
v 71 5
v 72 3
v 73 11
v 74 0
v 75 7
v 76 6
v 77 0
v 78 9
v 79 0
v 80 8
v 81 7
v 82 6
v 83 4
v 84 3
v 85 0
v 86 0
v 87 2
v 88 4
v 89 4
v 90 8
v 91 6
v 92 5
v 93 3
v 94 10
v 95 4
v 96 1
v 97 4
v 98 10
v 99 10
v 100 1
v 101 4
v 102 11
v 103 2
v 104 9
v 105 4
v 106 4
v 107 0
v 108 5
v 109 8
v 110 2
v 111 10
v 112 5
v 113 8
v 114 0
v 115 6
v 116 9
v 117 7
v 118 8
v 119 9
v 120 7
v 121 0
v 122 11
v 123 5
v 124 5
v 125 3
v 126 7
v 127 10
v 128 3
v 129 11
v 130 7
v 131 5
v 132 4
v 133 10
v 134 3
v 135 1
v 136 9
v 137 0
v 138 1
v 139 10
v 140 10
v 141 2
v 142 5
v 143 2
v 144 4
v 145 10
v 146 5
v 147 4
v 148 1
v 149 9
v 150 5
v 151 11
v 152 7
v 153 0
v 154 1
v 155 5
v 156 8
v 157 11
v 158 5
v 159 6
v 160 6
v 161 0
v 162 8
v 163 0
v 164 10
v 165 3
v 166 5
v 167 10
v 168 10
v 169 11
v 170 9
v 171 4
v 172 11
v 173 5
v 174 1
v 175 5
v 176 3
v 177 11
v 178 4
v 179 6
v 180 3
v 181 4
v 182 11
v 183 6
v 184 3
v 185 6
v 186 2
v 187 6
v 188 1
v 189 1
v 190 0
v 191 9
v 192 4
v 193 7
v 194 6
v 195 11
v 196 0
v 197 8
v 198 2
v 199 1
v 200 9
v 201 2
v 202 7
v 203 5
v 204 4
v 205 7
v 206 8
v 207 9
v 208 1
v 209 8
v 210 7
v 211 11
v 212 9
v 213 6
v 214 2
v 215 3
v 216 3
v 217 3
v 218 11
v 219 5
v 220 5
v 221 8
v 222 7
v 223 6
v 224 7
v 225 8
v 226 11
v 227 9
v 228 8
v 229 9
v 230 2
v 231 8
v 232 6
v 233 4
v 234 2
v 235 0
v 236 3
v 237 0
v 238 1
v 239 3
v 240 3
v 241 9
v 242 11
v 243 1
v 244 2
v 245 1
v 246 9
v 247 2
v 248 8
v 249 10
v 250 7
